nApps = 247
nRes = 9
nActs = 502
nNetworks = 6

assignmentToResources = [1,1,3,2,2,1,1,3,3,2,1,3,1,3,1,2,3,3,1,1,2,1,3,3,1,1,2,2,1,1,1,1,2,3,3,1,2,3,3,1,2,1,3,2,2,3,3,1,3,2,3,3,1,2,3,3,1,2,1,2,2,3,1,2,2,1,3,1,3,2,2,2,1,3,3,2,2,1,3,1,3,2,1,2,2,1,2,2,2,2,3,3,3,2,3,1,3,2,3,2,4,4,6,5,5,5,5,5,5,5,5,5,4,4,4,4,4,6,6,6,6,6,6,6,5,5,5,4,4,4,6,6,6,6,4,4,5,5,5,5,6,4,4,4,4,4,5,5,5,5,5,4,6,6,6,6,6,4,4,4,4,4,5,5,5,5,5,4,4,4,4,4,4,4,5,5,5,5,6,6,6,6,4,4,5,5,6,6,6,6,6,6,4,6,6,6,5,5,5,5,6,6,6,6,6,6,4,4,4,4,6,6,6,6,6,6,4,4,4,4,5,5,6,6,6,6,5,5,5,5,4,4,4,5,5,5,4,4,5,5,5,6,6,5,5,5,5,5,4,6,5,5,5,5,4,4,6,5,5,4,5,4,5,5,5,5,5,5,5,6,6,6,5,6,6,5,5,5,7,6,7,4,8,4,8,6,7,5,9,6,8,5,9,4,9,5,7,6,8,4,9,5,9,6,7,4,9,6,7,5,9,6,7,5,9,6,8,5,9,4,8,4,9,6,8,8,8,8,7,9,7,7,7,9,9,9,9,8,8,8,9,9,7,8,7,7,7,7,7,7,7,7,9,9,8,7,7,7,8,9,8,7,7,9,7,8,9,9,8,9,9,7,7,9,9,7,9,7,7,7,8,8,8,8,9,8,8,7,9,7,7,9,9,9,8,8,8,9,8,7,9,7,9,8,8,7,8,8,8,7,9,8,8,7,8,7,8,8,7,7,7,9,9,9,9,8,7,7,8,7,7,9,8,8,9,7,7,8,8,7,7,9,8,8,8,7,9,7,8,7,7,7,9,7,9,8,8,9,7,9,9,8,8,9,9,7,7,7,7,9,7,9,9,8,7,7,9,7,7,8,9,7,9,9,9,7,9,9,9,9,9,9,7,7,8,8,7,7,8,8,7,7];

processingTimes = [120,128,120,136,96,144,112,72,136,112,96,120,128,152,128,96,64,48,112,160,56,112,128,112,104,128,168,128,160,168,64,136,104,80,56,168,120,128,136,136,136,168,128,120,144,128,152,128,136,112,56,104,64,104,56,152,104,128,104,112,128,160,104,72,160,128,128,136,64,136,152,152,120,136,128,136,144,96,104,96,80,48,104,80,64,112,72,120,112,152,168,120,128,152,112,56,128,120,136,72,4,3,1000,500,500,500,500,3,500,3,3,4,3,3,3,3,3,3,3,8,3,3,4,500,3,4,4,500,3,3,4,500,500,1000,4,4,4,3,3,4,3,3,4,3,4,4,7,4,4,3,100,4,4,4,4,8,12,3,4,3,4,500,8,13,3,3,3,3,3,3,5,500,3,4,4,4,3,3,3,1000,3,3,4,4,500,4,3,3,5,5,3,3,3,500,500,3,4,4,8,3,3,500,500,1000,3,4,3,3,4,4,4,3,1000,5,5,4,4,8,500,8,4,4,500,4,4,500,4,500,5,3,3,3,3,3,500,500,4,4,4,4,4,4,500,5,500,3,3,500,3,3,4,4,8,3,3,3,4,4,500,4,3,3,4,8,13,500,3,3,500,5,4,500,4,4,4,3,4,500,500,500,500,500,500,500,500,500,500,500,500,500,500,500,500,500,500,500,500,500,500,500,500,500,500,500,500,500,500,500,500,3,3,7,7,3,3,3,3,4,4,3,3,3,3,4,4,4,3,1000,500,500,500,500,3,500,3,3,4,3,3,3,3,3,3,3,8,3,3,4,500,3,4,4,500,3,3,4,500,500,1000,4,4,4,3,3,4,3,3,4,3,4,4,7,4,4,3,100,4,4,4,4,8,12,3,4,3,4,500,8,13,3,3,3,3,3,3,5,500,3,4,4,4,3,3,3,1000,3,3,4,4,500,4,3,3,5,5,3,3,3,500,500,3,4,4,8,3,3,500,500,1000,3,4,3,3,4,4,4,3,1000,5,5,4,4,8,500,8,4,4,500,4,4,500,4,500,5,3,3,3,3,3,500,500,4,4,4,4,4,4,500,5,500,3,3,500,3,3,4,4,8,3,3,3,4,4,500,4,3,3,4,8,13,500,3,3,500,5,4,500,4,4,4,3,4];

periods = [20000,100000,10000,5000,10000,50000,5000,10000,10000,20000,20000,100000,100000,10000,100000,10000,10000,100000,20000,20000,1000,10000,20000,2000,20000,20000,100000,100000,20000,10000,20000,20000,50000,100000,20000,20000,50000,20000,100000,10000,10000,10000,10000,50000,10000,100000,20000,10000,20000,20000,10000,100000,10000,20000,20000,20000,100000,20000,10000,10000,20000,10000,10000,50000,10000,20000,20000,5000,10000,20000,100000,100000,100000,100000,10000,20000,10000,20000,2000,10000,100000,20000,1000,20000,20000,100000,5000,20000,20000,10000,20000,100000,50000,20000,20000,100000,100000,100000,20000,20000,20000,20000,10000,5000,5000,5000,5000,5000,10000,10000,10000,10000,50000,50000,50000,50000,50000,10000,10000,10000,10000,10000,10000,10000,20000,20000,20000,20000,20000,20000,100000,100000,10000,10000,100000,100000,10000,10000,10000,10000,100000,20000,20000,20000,20000,20000,1000,1000,1000,1000,1000,10000,20000,2000,2000,2000,2000,20000,20000,20000,20000,20000,100000,100000,100000,100000,100000,20000,20000,20000,10000,20000,20000,20000,50000,50000,50000,50000,100000,100000,20000,20000,20000,20000,50000,50000,20000,20000,100000,100000,100000,100000,10000,10000,10000,10000,50000,50000,10000,10000,100000,100000,100000,20000,20000,20000,10000,10000,10000,10000,20000,20000,20000,10000,10000,10000,10000,10000,10000,10000,20000,20000,20000,20000,20000,20000,20000,20000,20000,20000,10000,10000,10000,10000,20000,20000,10000,10000,50000,50000,10000,10000,10000,20000,20000,100000,100000,100000,100000,100000,20000,20000,10000,10000,20000,20000,2000,20000,20000,1000,20000,100000,5000,5000,20000,10000,10000,10000,10000,20000,50000,50000,20000,100000,20000,20000,20000,100000,100000,100000,100000,100000,100000,100000,100000,100000,100000,100000,100000,100000,100000,100000,100000,100000,100000,100000,100000,100000,100000,100000,100000,100000,100000,100000,100000,100000,100000,100000,100000,10000,10000,10000,10000,20000,20000,20000,20000,20000,20000,20000,20000,20000,20000,20000,20000,20000,20000,10000,5000,5000,5000,5000,5000,10000,10000,10000,10000,50000,50000,50000,50000,50000,10000,10000,10000,10000,10000,10000,10000,20000,20000,20000,20000,20000,20000,100000,100000,10000,10000,100000,100000,10000,10000,10000,10000,100000,20000,20000,20000,20000,20000,1000,1000,1000,1000,1000,10000,20000,2000,2000,2000,2000,20000,20000,20000,20000,20000,100000,100000,100000,100000,100000,20000,20000,20000,10000,20000,20000,20000,50000,50000,50000,50000,100000,100000,20000,20000,20000,20000,50000,50000,20000,20000,100000,100000,100000,100000,10000,10000,10000,10000,50000,50000,10000,10000,100000,100000,100000,20000,20000,20000,10000,10000,10000,10000,20000,20000,20000,10000,10000,10000,10000,10000,10000,10000,20000,20000,20000,20000,20000,20000,20000,20000,20000,20000,10000,10000,10000,10000,20000,20000,10000,10000,50000,50000,10000,10000,10000,20000,20000,100000,100000,100000,100000,100000,20000,20000,10000,10000,20000,20000,2000,20000,20000,1000,20000,100000,5000,5000,20000,10000,10000,10000,10000,20000,50000,50000,20000,100000,20000,20000,20000];

assignmentToClusters = [1,2,3,4,5,6,7,8,9,10,11,2,2,12,2,13,5,2,14,15,16,17,18,19,20,21,2,2,22,23,24,25,26,27,28,29,30,31,2,5,32,33,34,35,36,27,37,38,39,40,41,2,42,43,44,18,2,18,45,46,20,47,48,49,50,28,51,52,53,54,2,2,2,27,55,56,57,20,58,59,2,60,61,62,63,2,64,65,66,67,68,2,69,28,28,2,2,2,70,18,71,72,73,74,75,76,77,78,79,80,81,82,83,84,85,86,87,88,89,90,91,92,93,94,95,96,97,98,99,100,101,102,103,104,105,106,107,108,109,110,111,112,113,114,115,116,117,118,119,120,121,122,123,124,125,126,127,128,129,130,131,132,133,134,135,136,137,138,139,140,141,142,143,144,145,146,147,148,149,150,151,152,153,154,155,156,157,158,159,160,161,162,163,164,165,166,167,168,169,170,171,172,173,174,175,176,177,178,179,180,181,182,183,184,185,186,187,188,189,190,191,192,193,194,195,196,197,198,199,200,201,202,203,204,205,206,207,208,209,210,211,212,213,214,215,216,217,218,219,220,221,222,223,224,225,226,227,228,229,230,231,232,233,234,235,236,237,238,239,240,241,242,243,244,245,246,247,2,2,2,2,2,2,2,2,2,2,2,2,2,2,2,2,2,2,2,2,2,2,2,2,2,2,2,2,2,2,2,2,5,5,5,5,18,18,18,18,18,18,20,20,28,28,28,28,71,72,73,74,75,76,77,78,79,80,81,82,83,84,85,86,87,88,89,90,91,92,93,94,95,96,97,98,99,100,101,102,103,104,105,106,107,108,109,110,111,112,113,114,115,116,117,118,119,120,121,122,123,124,125,126,127,128,129,130,131,132,133,134,135,136,137,138,139,140,141,142,143,144,145,146,147,148,149,150,151,152,153,154,155,156,157,158,159,160,161,162,163,164,165,166,167,168,169,170,171,172,173,174,175,176,177,178,179,180,181,182,183,184,185,186,187,188,189,190,191,192,193,194,195,196,197,198,199,200,201,202,203,204,205,206,207,208,209,210,211,212,213,214,215,216,217,218,219,220,221,222,223,224,225,226,227,228,229,230,231,232,233,234,235,236,237,238,239,240,241,242,243,244,245,246,247];

precedenceAdjList = [[],[278,280],[],[],[],[],[],[],[],[],[],[302],[14],[],[286],[],[310],[288],[],[],[],[],[314],[],[],[],[70],[290],[],[],[],[],[],[73],[322],[],[],[],[],[312],[],[],[],[],[],[33],[],[],[],[],[],[306],[],[],[],[318],[304],[],[],[],[320],[],[],[],[],[],[],[],[],[],[282,284],[298],[308],[],[],[],[],[24],[],[],[300],[],[],[],[],[],[],[],[],[],[],[292,294],[],[324],[34],[296],[],[],[],[316],[],[],[],[],[],[],[],[],[],[],[],[],[],[],[],[],[],[],[],[],[],[],[],[],[],[],[],[],[],[],[],[],[],[],[],[],[],[],[],[],[],[],[],[],[],[],[],[],[],[],[],[],[],[],[],[],[],[],[],[],[],[],[],[],[],[],[],[],[],[],[],[],[],[],[],[],[],[],[],[],[],[],[],[],[],[],[],[],[],[],[],[],[],[],[],[],[],[],[],[],[],[],[],[],[],[],[],[],[],[],[],[],[],[],[],[],[],[],[],[],[],[],[],[],[],[],[],[],[],[],[],[],[],[],[],[],[],[],[],[],[],[],[],[],[],[],[],[],[],[],[],[],[],[],[],[],[],[],[],[],[],[],[],[],[],[],[],[],[],[],[],[],[],[],[],[],[],[97],[277],[96],[279],[1],[281],[14],[283],[38],[285],[70],[287],[17],[289],[27],[291],[95],[293],[71],[295],[80],[297],[85],[299],[71],[301],[91],[303],[1],[305],[51],[307],[4],[309],[16],[311],[99],[313],[55],[315],[57],[317],[77],[319],[65],[321],[34],[323],[100],[101],[102],[103],[104],[105],[106],[107],[108],[109],[110],[111],[112],[113],[114],[115],[116],[117],[118],[119],[120],[121],[122],[123],[124],[125],[126],[127],[128],[129],[130],[131],[132],[133],[134],[135],[136],[137],[138],[139],[140],[141],[142],[143],[144],[145],[146],[147],[148],[149],[150],[151],[152],[153],[154],[155],[156],[157],[158],[159],[160],[161],[162],[163],[164],[165],[166],[167],[168],[169],[170],[171],[172],[173],[174],[175],[176],[177],[178],[179],[180],[181],[182],[183],[184],[185],[186],[187],[188],[189],[190],[191],[192],[193],[194],[195],[196],[197],[198],[199],[200],[201],[202],[203],[204],[205],[206],[207],[208],[209],[210],[211],[212],[213],[214],[215],[216],[217],[218],[219],[220],[221],[222],[223],[224],[225],[226],[227],[228],[229],[230],[231],[232],[233],[234],[235],[236],[237],[238],[239],[240],[241],[242],[243],[244],[245],[246],[247],[248],[249],[250],[251],[252],[253],[254],[255],[256],[257],[258],[259],[260],[261],[262],[263],[264],[265],[266],[267],[268],[269],[270],[271],[272],[273],[274],[275],[276]];